NAME: Tnm160
COMMENT: Imported from tnm log files (not double checked for validity should be 2407153)
TYPE: TOUR
DIMENSION: 160
TOUR_SECTION:
1
132
129
126
123
134
137
120
117
114
111
108
105
102
99
96
93
90
87
84
81
78
75
72
69
66
63
60
57
54
51
48
45
42
39
36
33
30
27
24
151
148
145
142
139
136
21
18
15
12
9
133
6
3
131
128
125
122
119
116
113
110
107
104
101
98
95
92
89
86
83
80
77
74
71
68
65
62
59
56
53
50
47
44
41
38
35
32
29
26
23
20
17
14
11
8
135
5
2
130
127
124
121
118
115
138
141
112
109
106
103
100
97
94
91
88
85
82
79
76
73
70
67
64
61
58
55
144
147
150
153
156
159
160
157
154
158
155
152
149
146
143
140
52
49
46
43
40
37
34
31
28
25
22
19
16
13
10
7
4
-1
EOF
